
-6.8
-6.4
-5.9
-5.1
-4.1
-2.7
-2.3
-2.0
-1.9
-1.7
-1.5
-1.4
-1.3
-1.1
-1.0
-1.0
-1.0
-1.0
-1.0
-1.0
-1.0
-1.0
-1.0
-1.0
-1.0
-1.0
-1.0
-1.0
-1.0
-1.0
-6.65
-6.4
-6.1
-5.2
-3.8
-2.75
-1.9
-1.7
-1.6
-1.35
-1.15
-1.1
-1.1
-1.1
-1.05
-1.05
-0.95
-0.95
-0.95
-0.9
-0.9
-0.9
-0.9
-0.9
-0.9
-0.9
-0.9
-0.9
-0.9
-0.9
-0.9